% File represents an instance of a Composite Structure problem to be solved by a CP framework
% Created on 2025-03-26 10:41:16.162
T = 58;
n = 9;
m = 12;
edges = [(2, 1),
(5, 4),
(8, 7),
(2, 3),
(5, 6),
(8, 9),
(1, 4),
(7, 4),
(2, 5),
(8, 5),
(3, 6),
(9, 6)];
counts = [|8, 14, 8, 22,
|8, 14, 8, 28,
|8, 10, 8, 26,
|8, 14, 8, 20,
|8, 14, 8, 24,
|8, 10, 8, 22,
|8, 16, 8, 22,
|8, 16, 8, 24,
|8, 12, 8, 22|];
